# Generated by ConicBenchmarkUtilities.jl
VER
2

OBJSENSE
MIN

VAR
245 1
F 245

INT
80
36
37
38
39
40
41
42
43
44
45
46
47
48
49
50
51
52
53
54
55
56
57
58
59
60
61
62
63
64
65
66
67
68
69
70
71
72
73
74
75
138
140
142
144
146
148
150
152
153
154
155
156
159
162
165
168
169
170
171
172
174
176
178
180
182
184
186
188
190
192
194
196
197
198
199
200
201
202
203
204

CON
857 809
L= 1
L= 1
L= 1
L= 1
L= 1
L= 1
L= 1
L= 1
L= 1
L= 1
L= 1
L= 1
L= 1
L= 1
L= 1
L= 1
L= 1
L= 1
L= 1
L= 1
L= 1
L= 1
L= 1
L= 1
L= 1
EXP 3
L+ 1
EXP 3
L+ 1
EXP 3
L+ 1
EXP 3
L+ 1
L+ 1
L+ 1
L+ 1
L+ 1
L+ 1
L+ 1
L+ 1
L+ 1
EXP 3
L+ 1
EXP 3
L+ 1
EXP 3
L+ 1
EXP 3
L+ 1
L+ 1
L+ 1
L+ 1
L+ 1
L+ 1
L+ 1
L+ 1
L+ 1
L+ 1
L+ 1
L+ 1
L+ 1
L+ 1
L+ 1
L+ 1
L+ 1
L+ 1
L+ 1
L+ 1
L+ 1
L+ 1
L+ 1
L+ 1
L+ 1
EXP 3
L+ 1
EXP 3
L+ 1
EXP 3
L+ 1
EXP 3
L+ 1
L+ 1
L+ 1
L+ 1
L+ 1
L+ 1
L+ 1
L+ 1
L+ 1
L+ 1
L+ 1
L+ 1
L+ 1
L+ 1
L+ 1
L+ 1
L+ 1
L+ 1
L+ 1
L+ 1
L+ 1
L+ 1
L+ 1
L+ 1
L+ 1
L+ 1
L+ 1
L+ 1
L+ 1
L+ 1
L+ 1
L+ 1
L+ 1
L+ 1
L+ 1
L+ 1
L+ 1
EXP 3
L+ 1
EXP 3
L+ 1
EXP 3
L+ 1
EXP 3
L+ 1
L+ 1
L+ 1
L+ 1
L+ 1
L+ 1
L+ 1
L+ 1
L+ 1
EXP 3
L+ 1
EXP 3
L+ 1
EXP 3
L+ 1
EXP 3
L+ 1
L+ 1
L+ 1
L+ 1
L+ 1
L+ 1
L+ 1
L+ 1
L+ 1
EXP 3
L+ 1
EXP 3
L+ 1
EXP 3
L+ 1
EXP 3
L+ 1
L+ 1
L+ 1
L+ 1
L+ 1
L+ 1
L+ 1
L+ 1
L+ 1
L+ 1
L+ 1
L+ 1
L+ 1
L+ 1
L+ 1
L+ 1
L+ 1
L+ 1
L+ 1
L+ 1
L+ 1
L+ 1
L+ 1
L+ 1
L+ 1
L+ 1
L+ 1
L+ 1
L+ 1
L+ 1
L+ 1
L+ 1
L+ 1
L+ 1
L+ 1
L+ 1
L+ 1
L+ 1
L+ 1
L+ 1
L+ 1
L+ 1
L+ 1
L+ 1
L+ 1
L+ 1
L+ 1
L+ 1
L+ 1
L+ 1
L+ 1
L+ 1
L+ 1
L+ 1
L+ 1
L+ 1
L+ 1
L+ 1
L+ 1
L+ 1
L+ 1
L+ 1
L+ 1
L+ 1
L+ 1
L+ 1
L+ 1
L+ 1
L+ 1
L+ 1
L+ 1
L+ 1
L+ 1
L+ 1
L+ 1
L+ 1
L+ 1
L+ 1
L+ 1
L+ 1
L+ 1
L+ 1
L+ 1
L+ 1
L+ 1
L+ 1
L+ 1
L+ 1
L+ 1
L+ 1
L+ 1
L+ 1
L+ 1
L+ 1
L+ 1
L+ 1
L+ 1
L+ 1
L+ 1
L+ 1
L+ 1
L+ 1
L+ 1
L+ 1
L+ 1
L+ 1
L+ 1
L+ 1
L+ 1
L+ 1
L+ 1
L+ 1
L+ 1
L+ 1
L+ 1
L+ 1
L+ 1
L+ 1
L+ 1
L+ 1
L+ 1
L+ 1
L+ 1
L+ 1
L+ 1
L+ 1
L+ 1
L+ 1
L+ 1
L+ 1
L+ 1
L+ 1
L+ 1
L+ 1
L+ 1
L+ 1
L+ 1
L+ 1
L+ 1
L+ 1
L+ 1
L+ 1
L+ 1
L+ 1
L+ 1
L+ 1
L+ 1
L+ 1
L+ 1
L+ 1
L+ 1
L+ 1
L+ 1
L+ 1
L+ 1
L+ 1
L+ 1
L+ 1
L+ 1
L+ 1
L+ 1
L+ 1
L+ 1
L+ 1
L+ 1
L+ 1
L+ 1
L+ 1
L+ 1
L+ 1
L+ 1
L+ 1
L+ 1
L+ 1
L+ 1
L+ 1
L+ 1
L+ 1
L+ 1
L+ 1
L+ 1
L+ 1
L+ 1
L+ 1
L+ 1
L+ 1
L+ 1
L+ 1
L+ 1
L+ 1
L+ 1
L+ 1
L+ 1
L+ 1
L+ 1
L+ 1
L+ 1
L+ 1
L+ 1
L+ 1
L+ 1
L+ 1
L+ 1
L+ 1
L+ 1
L+ 1
L+ 1
L+ 1
L+ 1
L+ 1
L+ 1
L+ 1
L+ 1
L+ 1
L+ 1
L+ 1
L+ 1
L+ 1
L+ 1
L+ 1
L+ 1
L+ 1
L+ 1
L+ 1
L+ 1
L+ 1
L+ 1
L+ 1
L+ 1
L+ 1
L+ 1
L+ 1
L+ 1
L+ 1
L+ 1
L+ 1
L+ 1
L+ 1
L+ 1
L+ 1
L+ 1
L+ 1
L+ 1
L+ 1
L+ 1
L+ 1
L+ 1
L+ 1
L+ 1
L+ 1
L+ 1
L+ 1
L+ 1
L+ 1
L+ 1
L+ 1
L+ 1
L+ 1
L+ 1
L+ 1
L+ 1
L+ 1
L+ 1
L+ 1
L+ 1
L+ 1
L+ 1
L+ 1
L+ 1
L+ 1
L+ 1
L+ 1
L+ 1
L+ 1
L+ 1
L+ 1
L+ 1
L+ 1
L+ 1
L+ 1
L+ 1
L+ 1
L+ 1
L+ 1
L+ 1
L+ 1
L+ 1
L+ 1
L+ 1
L+ 1
L+ 1
L+ 1
L+ 1
L+ 1
L+ 1
L+ 1
L+ 1
L+ 1
L+ 1
L+ 1
L+ 1
L+ 1
L+ 1
L+ 1
L+ 1
L+ 1
L+ 1
L+ 1
L+ 1
L+ 1
L+ 1
L+ 1
L+ 1
L+ 1
L+ 1
L+ 1
L+ 1
L+ 1
L+ 1
L+ 1
L+ 1
L+ 1
L+ 1
L+ 1
L+ 1
L+ 1
L+ 1
L+ 1
L+ 1
L+ 1
L+ 1
L+ 1
L+ 1
L+ 1
L+ 1
L+ 1
L+ 1
L+ 1
L+ 1
L+ 1
L+ 1
L= 1
L= 1
L= 1
L= 1
L+ 1
L+ 1
L+ 1
L+ 1
L+ 1
L+ 1
L+ 1
L+ 1
L+ 1
L+ 1
L+ 1
L+ 1
L+ 1
L+ 1
L+ 1
L+ 1
L+ 1
L+ 1
L+ 1
L+ 1
L+ 1
L+ 1
L+ 1
L+ 1
L+ 1
L+ 1
L+ 1
L+ 1
L+ 1
L+ 1
L+ 1
L+ 1
L+ 1
L+ 1
L+ 1
L+ 1
L+ 1
L+ 1
L+ 1
L+ 1
L+ 1
L+ 1
L+ 1
L+ 1
L+ 1
L+ 1
L+ 1
L+ 1
L+ 1
L+ 1
L+ 1
L+ 1
L+ 1
L+ 1
L+ 1
L+ 1
L+ 1
L+ 1
L+ 1
L+ 1
L+ 1
L+ 1
L+ 1
L+ 1
L+ 1
L+ 1
L+ 1
L+ 1
L+ 1
L+ 1
L+ 1
L+ 1
L+ 1
L+ 1
L+ 1
L+ 1
L+ 1
L+ 1
L+ 1
L+ 1
L+ 1
L+ 1
L+ 1
L+ 1
L+ 1
L+ 1
L+ 1
L+ 1
L+ 1
L+ 1
L+ 1
L+ 1
L+ 1
L+ 1
L+ 1
L+ 1
L+ 1
L+ 1
L+ 1
L+ 1
L+ 1
L+ 1
L+ 1
L+ 1
L+ 1
L+ 1
L+ 1
L+ 1
L+ 1
L+ 1
L+ 1
L+ 1
L+ 1
L+ 1
L+ 1
L+ 1
L+ 1
L+ 1
L+ 1
L+ 1
L+ 1
L+ 1
L+ 1
L+ 1
L+ 1
L+ 1
L+ 1
L+ 1
L+ 1
L+ 1
L+ 1
L+ 1
L+ 1
L+ 1
L+ 1
L+ 1
L+ 1
L+ 1
L+ 1
L+ 1
L+ 1
L+ 1
L+ 1
L+ 1
L+ 1
L+ 1
L+ 1
L+ 1
L+ 1
L+ 1
L+ 1
L+ 1
L+ 1
L+ 1
L+ 1
L+ 1
L+ 1
L+ 1
L+ 1
L+ 1
L+ 1
L+ 1
L+ 1
L+ 1
L+ 1
L+ 1
L+ 1
L+ 1
L+ 1
L+ 1
L+ 1
L+ 1
L+ 1
L+ 1
L+ 1
L+ 1
L+ 1
L+ 1
L+ 1
L+ 1
L+ 1
L+ 1
L+ 1
L+ 1
L+ 1
L+ 1
L+ 1
L+ 1
L+ 1
L+ 1
L+ 1
L+ 1
L+ 1
L+ 1
L+ 1
L+ 1
L+ 1
L+ 1
L+ 1
L+ 1
L+ 1
L+ 1
L+ 1
L+ 1
L+ 1
L+ 1
L+ 1
L+ 1
L+ 1
L+ 1
L+ 1
L+ 1
L+ 1
L+ 1
L+ 1
L+ 1
L+ 1
L+ 1
L+ 1
L+ 1
L+ 1
L+ 1
L+ 1
L+ 1
L+ 1
L+ 1
L+ 1
L+ 1
L+ 1
L+ 1
L+ 1
L+ 1
L+ 1
L+ 1
L+ 1
L+ 1
L+ 1
L+ 1
L+ 1
L+ 1
L+ 1
L+ 1
L+ 1
L+ 1
L+ 1
L+ 1
L+ 1
L+ 1
L+ 1
L+ 1
L+ 1
L+ 1
L+ 1
L+ 1
L+ 1
L+ 1
L+ 1
L+ 1
L+ 1
L+ 1
L+ 1
L+ 1
L+ 1
L+ 1
L+ 1
L+ 1
L+ 1
L+ 1
L+ 1
L+ 1
L+ 1
L+ 1
L+ 1
L+ 1
L+ 1
L+ 1
L+ 1
L+ 1
L+ 1
L+ 1
L+ 1
L+ 1
L+ 1
L+ 1
L+ 1
L+ 1
L+ 1
L+ 1
L+ 1
L+ 1
L+ 1
L+ 1
L+ 1
L+ 1
L+ 1
L+ 1
L+ 1
L+ 1
L+ 1
L+ 1
L+ 1
L+ 1
L+ 1
L+ 1
L+ 1
L+ 1
L+ 1
L+ 1

OBJACOORD
1
76 -1.0

ACOORD
1597
0 0 -1.0
1 0 1.0
589 0 1.0
590 0 -1.0
0 1 -1.0
2 1 1.0
591 1 1.0
592 1 -1.0
0 2 -1.0
3 2 1.0
593 2 1.0
594 2 -1.0
0 3 -1.0
4 3 1.0
595 3 1.0
596 3 -1.0
0 4 5.0
9 4 -1.0
617 4 1.0
0 5 10.0
10 5 -1.0
618 5 1.0
0 6 5.0
11 6 -1.0
619 6 1.0
0 7 10.0
12 7 -1.0
620 7 1.0
0 8 -2.0
121 8 0.5
125 8 -0.5
133 8 -1.0
637 8 1.0
638 8 -1.0
0 9 -1.0
122 9 0.5
126 9 -0.5
134 9 -1.0
639 9 1.0
640 9 -1.0
0 10 -2.0
123 10 0.5
127 10 -0.5
135 10 -1.0
641 10 1.0
642 10 -1.0
0 11 -1.0
124 11 0.5
128 11 -0.5
136 11 -1.0
643 11 1.0
644 11 -1.0
0 12 80.0
21 12 -1.0
673 12 1.0
0 13 90.0
22 13 -1.0
674 13 1.0
0 14 120.0
23 14 -1.0
675 14 1.0
0 15 100.0
24 15 -1.0
676 15 1.0
0 16 285.0
144 16 -1.0
161 16 -1.0
677 16 1.0
0 17 390.0
148 17 -1.0
162 17 -1.0
678 17 1.0
0 18 350.0
152 18 -1.0
163 18 -1.0
679 18 1.0
0 19 300.0
156 19 -1.0
164 19 -1.0
680 19 1.0
0 20 290.0
168 20 -1.0
185 20 -1.0
681 20 1.0
0 21 405.0
172 21 -1.0
186 21 -1.0
682 21 1.0
0 22 190.0
176 22 -1.0
187 22 -1.0
683 22 1.0
0 23 340.0
180 23 -1.0
188 23 -1.0
684 23 1.0
0 24 280.0
192 24 -1.0
209 24 -1.0
685 24 1.0
0 25 400.0
196 25 -1.0
210 25 -1.0
686 25 1.0
0 26 430.0
200 26 -1.0
211 26 -1.0
687 26 1.0
0 27 260.0
204 27 -1.0
212 27 -1.0
688 27 1.0
0 28 290.0
213 28 -1.0
217 28 1.0
225 28 -1.0
689 28 1.0
0 29 300.0
214 29 -1.0
218 29 1.0
226 29 -1.0
690 29 1.0
0 30 240.0
215 30 -1.0
219 30 1.0
227 30 -1.0
691 30 1.0
0 31 310.0
216 31 -1.0
220 31 1.0
228 31 -1.0
692 31 1.0
0 32 350.0
229 32 -1.0
233 32 1.0
241 32 -1.0
693 32 1.0
0 33 250.0
230 33 -1.0
234 33 1.0
242 33 -1.0
694 33 1.0
0 34 300.0
231 34 -1.0
235 34 1.0
243 34 -1.0
695 34 1.0
0 35 400.0
232 35 -1.0
236 35 1.0
244 35 -1.0
696 35 1.0
0 36 -5.0
245 36 -5.0
285 36 5.0
385 36 -1.0
386 36 -1.0
387 36 -1.0
388 36 -1.0
391 36 -1.0
394 36 -1.0
505 36 1.0
777 36 1.0
778 36 -1.0
0 37 -4.0
246 37 -4.0
286 37 4.0
385 37 -1.0
388 37 -1.0
389 37 -1.0
390 37 -1.0
392 37 -1.0
395 37 -1.0
506 37 1.0
779 37 1.0
780 37 -1.0
0 38 -6.0
247 38 -6.0
287 38 6.0
386 38 -1.0
389 38 -1.0
391 38 -1.0
392 38 -1.0
393 38 -1.0
396 38 -1.0
507 38 1.0
781 38 1.0
782 38 -1.0
0 39 -3.0
248 39 -3.0
288 39 3.0
387 39 -1.0
390 39 -1.0
393 39 -1.0
394 39 -1.0
395 39 -1.0
396 39 -1.0
508 39 1.0
783 39 1.0
784 39 -1.0
0 40 -8.0
249 40 -8.0
289 40 8.0
397 40 -1.0
398 40 -1.0
399 40 -1.0
400 40 -1.0
403 40 -1.0
406 40 -1.0
509 40 1.0
785 40 1.0
786 40 -1.0
0 41 -7.0
250 41 -7.0
290 41 7.0
397 41 -1.0
400 41 -1.0
401 41 -1.0
402 41 -1.0
404 41 -1.0
407 41 -1.0
510 41 1.0
787 41 1.0
788 41 -1.0
0 42 -6.0
251 42 -6.0
291 42 6.0
398 42 -1.0
401 42 -1.0
403 42 -1.0
404 42 -1.0
405 42 -1.0
408 42 -1.0
511 42 1.0
789 42 1.0
790 42 -1.0
0 43 -5.0
252 43 -5.0
292 43 5.0
399 43 -1.0
402 43 -1.0
405 43 -1.0
406 43 -1.0
407 43 -1.0
408 43 -1.0
512 43 1.0
791 43 1.0
792 43 -1.0
0 44 -6.0
253 44 -6.0
293 44 6.0
409 44 -1.0
410 44 -1.0
411 44 -1.0
412 44 -1.0
415 44 -1.0
418 44 -1.0
513 44 1.0
793 44 1.0
794 44 -1.0
0 45 -9.0
254 45 -9.0
294 45 9.0
409 45 -1.0
412 45 -1.0
413 45 -1.0
414 45 -1.0
416 45 -1.0
419 45 -1.0
514 45 1.0
795 45 1.0
796 45 -1.0
0 46 -4.0
255 46 -4.0
295 46 4.0
410 46 -1.0
413 46 -1.0
415 46 -1.0
416 46 -1.0
417 46 -1.0
420 46 -1.0
515 46 1.0
797 46 1.0
798 46 -1.0
0 47 -3.0
256 47 -3.0
296 47 3.0
411 47 -1.0
414 47 -1.0
417 47 -1.0
418 47 -1.0
419 47 -1.0
420 47 -1.0
516 47 1.0
799 47 1.0
800 47 -1.0
0 48 -10.0
257 48 -10.0
297 48 10.0
421 48 -1.0
422 48 -1.0
423 48 -1.0
424 48 -1.0
427 48 -1.0
430 48 -1.0
517 48 1.0
801 48 1.0
802 48 -1.0
0 49 -9.0
258 49 -9.0
298 49 9.0
421 49 -1.0
424 49 -1.0
425 49 -1.0
426 49 -1.0
428 49 -1.0
431 49 -1.0
518 49 1.0
803 49 1.0
804 49 -1.0
0 50 -5.0
259 50 -5.0
299 50 5.0
422 50 -1.0
425 50 -1.0
427 50 -1.0
428 50 -1.0
429 50 -1.0
432 50 -1.0
519 50 1.0
805 50 1.0
806 50 -1.0
0 51 -6.0
260 51 -6.0
300 51 6.0
423 51 -1.0
426 51 -1.0
429 51 -1.0
430 51 -1.0
431 51 -1.0
432 51 -1.0
520 51 1.0
807 51 1.0
808 51 -1.0
0 52 -6.0
261 52 -6.0
301 52 6.0
433 52 -1.0
434 52 -1.0
435 52 -1.0
436 52 -1.0
439 52 -1.0
442 52 -1.0
521 52 1.0
809 52 1.0
810 52 -1.0
0 53 -10.0
262 53 -10.0
302 53 10.0
433 53 -1.0
436 53 -1.0
437 53 -1.0
438 53 -1.0
440 53 -1.0
443 53 -1.0
522 53 1.0
811 53 1.0
812 53 -1.0
0 54 -6.0
263 54 -6.0
303 54 6.0
434 54 -1.0
437 54 -1.0
439 54 -1.0
440 54 -1.0
441 54 -1.0
444 54 -1.0
523 54 1.0
813 54 1.0
814 54 -1.0
0 55 -9.0
264 55 -9.0
304 55 9.0
435 55 -1.0
438 55 -1.0
441 55 -1.0
442 55 -1.0
443 55 -1.0
444 55 -1.0
524 55 1.0
815 55 1.0
816 55 -1.0
0 56 -7.0
265 56 -7.0
305 56 7.0
445 56 -1.0
446 56 -1.0
447 56 -1.0
448 56 -1.0
451 56 -1.0
454 56 -1.0
525 56 1.0
817 56 1.0
818 56 -1.0
0 57 -7.0
266 57 -7.0
306 57 7.0
445 57 -1.0
448 57 -1.0
449 57 -1.0
450 57 -1.0
452 57 -1.0
455 57 -1.0
526 57 1.0
819 57 1.0
820 57 -1.0
0 58 -4.0
267 58 -4.0
307 58 4.0
446 58 -1.0
449 58 -1.0
451 58 -1.0
452 58 -1.0
453 58 -1.0
456 58 -1.0
527 58 1.0
821 58 1.0
822 58 -1.0
0 59 -2.0
268 59 -2.0
308 59 2.0
447 59 -1.0
450 59 -1.0
453 59 -1.0
454 59 -1.0
455 59 -1.0
456 59 -1.0
528 59 1.0
823 59 1.0
824 59 -1.0
0 60 -4.0
269 60 -4.0
309 60 4.0
457 60 -1.0
458 60 -1.0
459 60 -1.0
460 60 -1.0
463 60 -1.0
466 60 -1.0
529 60 1.0
825 60 1.0
826 60 -1.0
0 61 -3.0
270 61 -3.0
310 61 3.0
457 61 -1.0
460 61 -1.0
461 61 -1.0
462 61 -1.0
464 61 -1.0
467 61 -1.0
530 61 1.0
827 61 1.0
828 61 -1.0
0 62 -2.0
271 62 -2.0
311 62 2.0
458 62 -1.0
461 62 -1.0
463 62 -1.0
464 62 -1.0
465 62 -1.0
468 62 -1.0
531 62 1.0
829 62 1.0
830 62 -1.0
0 63 -8.0
272 63 -8.0
312 63 8.0
459 63 -1.0
462 63 -1.0
465 63 -1.0
466 63 -1.0
467 63 -1.0
468 63 -1.0
532 63 1.0
831 63 1.0
832 63 -1.0
0 64 -5.0
273 64 -5.0
313 64 5.0
469 64 -1.0
470 64 -1.0
471 64 -1.0
472 64 -1.0
475 64 -1.0
478 64 -1.0
533 64 1.0
833 64 1.0
834 64 -1.0
0 65 -6.0
274 65 -6.0
314 65 6.0
469 65 -1.0
472 65 -1.0
473 65 -1.0
474 65 -1.0
476 65 -1.0
479 65 -1.0
534 65 1.0
835 65 1.0
836 65 -1.0
0 66 -7.0
275 66 -7.0
315 66 7.0
470 66 -1.0
473 66 -1.0
475 66 -1.0
476 66 -1.0
477 66 -1.0
480 66 -1.0
535 66 1.0
837 66 1.0
838 66 -1.0
0 67 -4.0
276 67 -4.0
316 67 4.0
471 67 -1.0
474 67 -1.0
477 67 -1.0
478 67 -1.0
479 67 -1.0
480 67 -1.0
536 67 1.0
839 67 1.0
840 67 -1.0
0 68 -2.0
277 68 -2.0
317 68 2.0
481 68 -1.0
482 68 -1.0
483 68 -1.0
484 68 -1.0
487 68 -1.0
490 68 -1.0
537 68 1.0
841 68 1.0
842 68 -1.0
0 69 -5.0
278 69 -5.0
318 69 5.0
481 69 -1.0
484 69 -1.0
485 69 -1.0
486 69 -1.0
488 69 -1.0
491 69 -1.0
538 69 1.0
843 69 1.0
844 69 -1.0
0 70 -2.0
279 70 -2.0
319 70 2.0
482 70 -1.0
485 70 -1.0
487 70 -1.0
488 70 -1.0
489 70 -1.0
492 70 -1.0
539 70 1.0
845 70 1.0
846 70 -1.0
0 71 -6.0
280 71 -6.0
320 71 6.0
483 71 -1.0
486 71 -1.0
489 71 -1.0
490 71 -1.0
491 71 -1.0
492 71 -1.0
540 71 1.0
847 71 1.0
848 71 -1.0
0 72 -4.0
281 72 -4.0
321 72 4.0
493 72 -1.0
494 72 -1.0
495 72 -1.0
496 72 -1.0
499 72 -1.0
502 72 -1.0
541 72 1.0
849 72 1.0
850 72 -1.0
0 73 -7.0
282 73 -7.0
322 73 7.0
493 73 -1.0
496 73 -1.0
497 73 -1.0
498 73 -1.0
500 73 -1.0
503 73 -1.0
542 73 1.0
851 73 1.0
852 73 -1.0
0 74 -4.0
283 74 -4.0
323 74 4.0
494 74 -1.0
497 74 -1.0
499 74 -1.0
500 74 -1.0
501 74 -1.0
504 74 -1.0
543 74 1.0
853 74 1.0
854 74 -1.0
0 75 -7.0
284 75 -7.0
324 75 7.0
495 75 -1.0
498 75 -1.0
501 75 -1.0
502 75 -1.0
503 75 -1.0
504 75 -1.0
544 75 1.0
855 75 1.0
856 75 -1.0
0 76 -1.0
1 77 -1.0
25 77 1.0
41 77 -1.0
597 77 1.0
1 78 -1.0
49 78 1.0
65 78 -1.0
601 78 1.0
2 79 -1.0
29 79 1.0
42 79 -1.0
598 79 1.0
2 80 -1.0
53 80 1.0
66 80 -1.0
602 80 1.0
3 81 -1.0
33 81 1.0
43 81 -1.0
599 81 1.0
3 82 -1.0
57 82 1.0
67 82 -1.0
603 82 1.0
4 83 -1.0
37 83 1.0
44 83 -1.0
600 83 1.0
4 84 -1.0
61 84 1.0
68 84 -1.0
604 84 1.0
5 85 -1.0
28 85 -1.0
45 85 -1.0
605 85 1.0
5 86 -1.0
52 86 -1.0
69 86 -1.0
609 86 1.0
5 87 1.0
9 87 1.0
613 87 1.0
6 88 -1.0
32 88 -1.0
46 88 -1.0
606 88 1.0
6 89 -1.0
56 89 -1.0
70 89 -1.0
610 89 1.0
6 90 1.0
10 90 1.0
614 90 1.0
7 91 -1.0
36 91 -1.0
47 91 -1.0
607 91 1.0
7 92 -1.0
60 92 -1.0
71 92 -1.0
611 92 1.0
7 93 1.0
11 93 1.0
615 93 1.0
8 94 -1.0
40 94 -1.0
48 94 -1.0
608 94 1.0
8 95 -1.0
64 95 -1.0
72 95 -1.0
612 95 1.0
8 96 1.0
12 96 1.0
616 96 1.0
9 97 -1.0
13 97 1.0
621 97 1.0
10 98 -1.0
14 98 1.0
622 98 1.0
11 99 -1.0
15 99 1.0
623 99 1.0
12 100 -1.0
16 100 1.0
624 100 1.0
13 101 -1.0
73 101 0.75
77 101 -0.75
81 101 -1.0
625 101 1.0
13 102 -1.0
89 102 1.0
105 102 -1.0
629 102 1.0
13 103 -1.0
113 103 1.0
117 103 -1.0
129 103 -1.0
633 103 1.0
14 104 -1.0
74 104 0.75
78 104 -0.75
82 104 -1.0
626 104 1.0
14 105 -1.0
93 105 1.0
106 105 -1.0
630 105 1.0
14 106 -1.0
114 106 1.0
118 106 -1.0
130 106 -1.0
634 106 1.0
15 107 -1.0
75 107 0.75
79 107 -0.75
83 107 -1.0
627 107 1.0
15 108 -1.0
97 108 1.0
107 108 -1.0
631 108 1.0
15 109 -1.0
115 109 1.0
119 109 -1.0
131 109 -1.0
635 109 1.0
16 110 -1.0
76 110 0.75
80 110 -0.75
84 110 -1.0
628 110 1.0
16 111 -1.0
101 111 1.0
108 111 -1.0
632 111 1.0
16 112 -1.0
116 112 1.0
120 112 -1.0
132 112 -1.0
636 112 1.0
17 113 1.0
73 113 -1.0
77 113 1.0
85 113 -1.0
645 113 1.0
17 114 -1.0
141 114 1.0
157 114 -1.0
657 114 1.0
17 115 -1.0
165 115 1.0
181 115 -1.0
661 115 1.0
18 116 1.0
74 116 -1.0
78 116 1.0
86 116 -1.0
646 116 1.0
18 117 -1.0
145 117 1.0
158 117 -1.0
658 117 1.0
18 118 -1.0
169 118 1.0
182 118 -1.0
662 118 1.0
19 119 1.0
75 119 -1.0
79 119 1.0
87 119 -1.0
647 119 1.0
19 120 -1.0
149 120 1.0
159 120 -1.0
659 120 1.0
19 121 -1.0
173 121 1.0
183 121 -1.0
663 121 1.0
20 122 1.0
76 122 -1.0
80 122 1.0
88 122 -1.0
648 122 1.0
20 123 -1.0
153 123 1.0
160 123 -1.0
660 123 1.0
20 124 -1.0
177 124 1.0
184 124 -1.0
664 124 1.0
21 125 1.0
113 125 -1.0
117 125 1.0
121 125 -1.0
125 125 1.0
137 125 -1.0
653 125 1.0
21 126 -1.0
213 126 0.9
217 126 -0.9
221 126 -1.0
665 126 1.0
21 127 -1.0
229 127 0.6
233 127 -0.6
237 127 -1.0
669 127 1.0
22 128 1.0
114 128 -1.0
118 128 1.0
122 128 -1.0
126 128 1.0
138 128 -1.0
654 128 1.0
22 129 -1.0
214 129 0.9
218 129 -0.9
222 129 -1.0
666 129 1.0
22 130 -1.0
230 130 0.6
234 130 -0.6
238 130 -1.0
670 130 1.0
23 131 1.0
115 131 -1.0
119 131 1.0
123 131 -1.0
127 131 1.0
139 131 -1.0
655 131 1.0
23 132 -1.0
215 132 0.9
219 132 -0.9
223 132 -1.0
667 132 1.0
23 133 -1.0
231 133 0.6
235 133 -0.6
239 133 -1.0
671 133 1.0
24 134 1.0
116 134 -1.0
120 134 1.0
124 134 -1.0
128 134 1.0
140 134 -1.0
656 134 1.0
24 135 -1.0
216 135 0.9
220 135 -0.9
224 135 -1.0
668 135 1.0
24 136 -1.0
232 136 0.6
236 136 -0.6
240 136 -1.0
672 136 1.0
27 137 1.0
28 137 1.0
28 138 -1.0
41 138 40.0
45 138 3.71357206670431
325 138 -1.0
326 138 -1.0
327 138 -1.0
505 138 -1.0
506 138 1.0
507 138 1.0
508 138 1.0
545 138 1.0
557 138 1.0
561 138 1.0
565 138 1.0
697 138 1.0
698 138 -1.0
31 139 1.0
32 139 1.0
32 140 -1.0
42 140 40.0
46 140 3.71357206670431
325 140 1.0
328 140 -1.0
329 140 -1.0
506 140 -1.0
507 140 1.0
508 140 1.0
546 140 1.0
558 140 1.0
562 140 1.0
566 140 1.0
699 140 1.0
700 140 -1.0
35 141 1.0
36 141 1.0
36 142 -1.0
43 142 40.0
47 142 3.71357206670431
326 142 1.0
328 142 1.0
330 142 -1.0
507 142 -1.0
508 142 1.0
547 142 1.0
559 142 1.0
563 142 1.0
567 142 1.0
701 142 1.0
702 142 -1.0
39 143 1.0
40 143 1.0
40 144 -1.0
44 144 40.0
48 144 3.71357206670431
327 144 1.0
329 144 1.0
330 144 1.0
508 144 -1.0
548 144 1.0
560 144 1.0
564 144 1.0
568 144 1.0
703 144 1.0
704 144 -1.0
51 145 1.0
52 145 1.2
52 146 -1.0
65 146 40.0
69 146 4.45628648004517
331 146 -1.0
332 146 -1.0
333 146 -1.0
509 146 -1.0
510 146 1.0
511 146 1.0
512 146 1.0
545 146 1.0
557 146 1.0
561 146 1.0
565 146 1.0
705 146 1.0
706 146 -1.0
55 147 1.0
56 147 1.2
56 148 -1.0
66 148 40.0
70 148 4.45628648004517
331 148 1.0
334 148 -1.0
335 148 -1.0
510 148 -1.0
511 148 1.0
512 148 1.0
546 148 1.0
558 148 1.0
562 148 1.0
566 148 1.0
707 148 1.0
708 148 -1.0
59 149 1.0
60 149 1.2
60 150 -1.0
67 150 40.0
71 150 4.45628648004517
332 150 1.0
334 150 1.0
336 150 -1.0
511 150 -1.0
512 150 1.0
547 150 1.0
559 150 1.0
563 150 1.0
567 150 1.0
709 150 1.0
710 150 -1.0
63 151 1.0
64 151 1.2
64 152 -1.0
68 152 40.0
72 152 4.45628648004517
333 152 1.0
335 152 1.0
336 152 1.0
512 152 -1.0
548 152 1.0
560 152 1.0
564 152 1.0
568 152 1.0
711 152 1.0
712 152 -1.0
73 153 -1.0
77 153 -1.0
81 153 4.45628648004517
85 153 3.34221486003388
337 153 -1.0
338 153 -1.0
339 153 -1.0
513 153 -1.0
514 153 1.0
515 153 1.0
516 153 1.0
549 153 -1.0
557 153 -1.0
569 153 1.0
573 153 1.0
713 153 1.0
714 153 -1.0
74 154 -1.0
78 154 -1.0
82 154 4.45628648004517
86 154 3.34221486003388
337 154 1.0
340 154 -1.0
341 154 -1.0
514 154 -1.0
515 154 1.0
516 154 1.0
550 154 -1.0
558 154 -1.0
570 154 1.0
574 154 1.0
715 154 1.0
716 154 -1.0
75 155 -1.0
79 155 -1.0
83 155 4.45628648004517
87 155 3.34221486003388
338 155 1.0
340 155 1.0
342 155 -1.0
515 155 -1.0
516 155 1.0
551 155 -1.0
559 155 -1.0
571 155 1.0
575 155 1.0
717 155 1.0
718 155 -1.0
76 156 -1.0
80 156 -1.0
84 156 4.45628648004517
88 156 3.34221486003388
339 156 1.0
341 156 1.0
342 156 1.0
516 156 -1.0
552 156 -1.0
560 156 -1.0
572 156 1.0
576 156 1.0
719 156 1.0
720 156 -1.0
91 157 1.0
92 157 1.5
92 158 -1.0
109 158 -1.0
189 158 1.0
205 158 -1.0
649 158 1.0
92 159 -1.0
105 159 4.45628648004517
109 159 2.54515263975353
343 159 -1.0
344 159 -1.0
345 159 -1.0
517 159 -1.0
518 159 1.0
519 159 1.0
520 159 1.0
553 159 -1.0
561 159 -1.0
577 159 1.0
721 159 1.0
722 159 -1.0
95 160 1.0
96 160 1.5
96 161 -1.0
110 161 -1.0
193 161 1.0
206 161 -1.0
650 161 1.0
96 162 -1.0
106 162 4.45628648004517
110 162 2.54515263975353
343 162 1.0
346 162 -1.0
347 162 -1.0
518 162 -1.0
519 162 1.0
520 162 1.0
554 162 -1.0
562 162 -1.0
578 162 1.0
723 162 1.0
724 162 -1.0
99 163 1.0
100 163 1.5
100 164 -1.0
111 164 -1.0
197 164 1.0
207 164 -1.0
651 164 1.0
100 165 -1.0
107 165 4.45628648004517
111 165 2.54515263975353
344 165 1.0
346 165 1.0
348 165 -1.0
519 165 -1.0
520 165 1.0
555 165 -1.0
563 165 -1.0
579 165 1.0
725 165 1.0
726 165 -1.0
103 166 1.0
104 166 1.5
104 167 -1.0
112 167 -1.0
201 167 1.0
208 167 -1.0
652 167 1.0
104 168 -1.0
108 168 4.45628648004517
112 168 2.54515263975353
345 168 1.0
347 168 1.0
348 168 1.0
520 168 -1.0
556 168 -1.0
564 168 -1.0
580 168 1.0
727 168 1.0
728 168 -1.0
113 169 -1.0
117 169 -1.0
121 169 -1.0
125 169 -1.0
129 169 4.45628648004517
133 169 30.0
137 169 15.0
349 169 -1.0
350 169 -1.0
351 169 -1.0
521 169 -1.0
522 169 1.0
523 169 1.0
524 169 1.0
565 169 -1.0
581 169 1.0
585 169 1.0
729 169 1.0
730 169 -1.0
114 170 -1.0
118 170 -1.0
122 170 -1.0
126 170 -1.0
130 170 4.45628648004517
134 170 30.0
138 170 15.0
349 170 1.0
352 170 -1.0
353 170 -1.0
522 170 -1.0
523 170 1.0
524 170 1.0
566 170 -1.0
582 170 1.0
586 170 1.0
731 170 1.0
732 170 -1.0
115 171 -1.0
119 171 -1.0
123 171 -1.0
127 171 -1.0
131 171 4.45628648004517
135 171 30.0
139 171 15.0
350 171 1.0
352 171 1.0
354 171 -1.0
523 171 -1.0
524 171 1.0
567 171 -1.0
583 171 1.0
587 171 1.0
733 171 1.0
734 171 -1.0
116 172 -1.0
120 172 -1.0
124 172 -1.0
128 172 -1.0
132 172 4.45628648004517
136 172 30.0
140 172 15.0
351 172 1.0
353 172 1.0
354 172 1.0
524 172 -1.0
568 172 -1.0
584 172 1.0
588 172 1.0
735 172 1.0
736 172 -1.0
143 173 1.0
144 173 1.25
144 174 -1.0
157 174 3.34221486003388
161 174 1.83548069293539
355 174 -1.0
356 174 -1.0
357 174 -1.0
525 174 -1.0
526 174 1.0
527 174 1.0
528 174 1.0
549 174 1.0
569 174 -1.0
737 174 1.0
738 174 -1.0
147 175 1.0
148 175 1.25
148 176 -1.0
158 176 3.34221486003388
162 176 1.83548069293539
355 176 1.0
358 176 -1.0
359 176 -1.0
526 176 -1.0
527 176 1.0
528 176 1.0
550 176 1.0
570 176 -1.0
739 176 1.0
740 176 -1.0
151 177 1.0
152 177 1.25
152 178 -1.0
159 178 3.34221486003388
163 178 1.83548069293539
356 178 1.0
358 178 1.0
360 178 -1.0
527 178 -1.0
528 178 1.0
551 178 1.0
571 178 -1.0
741 178 1.0
742 178 -1.0
155 179 1.0
156 179 1.25
156 180 -1.0
160 180 3.34221486003388
164 180 1.83548069293539
357 180 1.0
359 180 1.0
360 180 1.0
528 180 -1.0
552 180 1.0
572 180 -1.0
743 180 1.0
744 180 -1.0
167 181 1.0
168 181 0.9
168 182 -1.0
181 182 3.34221486003388
185 182 1.32154609891348
361 182 -1.0
362 182 -1.0
363 182 -1.0
529 182 -1.0
530 182 1.0
531 182 1.0
532 182 1.0
549 182 1.0
573 182 -1.0
745 182 1.0
746 182 -1.0
171 183 1.0
172 183 0.9
172 184 -1.0
182 184 3.34221486003388
186 184 1.32154609891348
361 184 1.0
364 184 -1.0
365 184 -1.0
530 184 -1.0
531 184 1.0
532 184 1.0
550 184 1.0
574 184 -1.0
747 184 1.0
748 184 -1.0
175 185 1.0
176 185 0.9
176 186 -1.0
183 186 3.34221486003388
187 186 1.32154609891348
362 186 1.0
364 186 1.0
366 186 -1.0
531 186 -1.0
532 186 1.0
551 186 1.0
575 186 -1.0
749 186 1.0
750 186 -1.0
179 187 1.0
180 187 0.9
180 188 -1.0
184 188 3.34221486003388
188 188 1.32154609891348
363 188 1.0
365 188 1.0
366 188 1.0
532 188 -1.0
552 188 1.0
576 188 -1.0
751 188 1.0
752 188 -1.0
191 189 1.0
192 189 1.0
192 190 -1.0
205 190 2.54515263975353
209 190 1.26558121681553
367 190 -1.0
368 190 -1.0
369 190 -1.0
533 190 -1.0
534 190 1.0
535 190 1.0
536 190 1.0
553 190 1.0
577 190 -1.0
753 190 1.0
754 190 -1.0
195 191 1.0
196 191 1.0
196 192 -1.0
206 192 2.54515263975353
210 192 1.26558121681553
367 192 1.0
370 192 -1.0
371 192 -1.0
534 192 -1.0
535 192 1.0
536 192 1.0
554 192 1.0
578 192 -1.0
755 192 1.0
756 192 -1.0
199 193 1.0
200 193 1.0
200 194 -1.0
207 194 2.54515263975353
211 194 1.26558121681553
368 194 1.0
370 194 1.0
372 194 -1.0
535 194 -1.0
536 194 1.0
555 194 1.0
579 194 -1.0
757 194 1.0
758 194 -1.0
203 195 1.0
204 195 1.0
204 196 -1.0
208 196 2.54515263975353
212 196 1.26558121681553
369 196 1.0
371 196 1.0
372 196 1.0
536 196 -1.0
556 196 1.0
580 196 -1.0
759 196 1.0
760 196 -1.0
213 197 -1.0
217 197 -1.0
221 197 15.0
225 197 13.5
373 197 -1.0
374 197 -1.0
375 197 -1.0
537 197 -1.0
538 197 1.0
539 197 1.0
540 197 1.0
581 197 -1.0
761 197 1.0
762 197 -1.0
214 198 -1.0
218 198 -1.0
222 198 15.0
226 198 13.5
373 198 1.0
376 198 -1.0
377 198 -1.0
538 198 -1.0
539 198 1.0
540 198 1.0
582 198 -1.0
763 198 1.0
764 198 -1.0
215 199 -1.0
219 199 -1.0
223 199 15.0
227 199 13.5
374 199 1.0
376 199 1.0
378 199 -1.0
539 199 -1.0
540 199 1.0
583 199 -1.0
765 199 1.0
766 199 -1.0
216 200 -1.0
220 200 -1.0
224 200 15.0
228 200 13.5
375 200 1.0
377 200 1.0
378 200 1.0
540 200 -1.0
584 200 -1.0
767 200 1.0
768 200 -1.0
229 201 -1.0
233 201 -1.0
237 201 15.0
241 201 9.0
379 201 -1.0
380 201 -1.0
381 201 -1.0
541 201 -1.0
542 201 1.0
543 201 1.0
544 201 1.0
585 201 -1.0
769 201 1.0
770 201 -1.0
230 202 -1.0
234 202 -1.0
238 202 15.0
242 202 9.0
379 202 1.0
382 202 -1.0
383 202 -1.0
542 202 -1.0
543 202 1.0
544 202 1.0
586 202 -1.0
771 202 1.0
772 202 -1.0
231 203 -1.0
235 203 -1.0
239 203 15.0
243 203 9.0
380 203 1.0
382 203 1.0
384 203 -1.0
543 203 -1.0
544 203 1.0
587 203 -1.0
773 203 1.0
774 203 -1.0
232 204 -1.0
236 204 -1.0
240 204 15.0
244 204 9.0
381 204 1.0
383 204 1.0
384 204 1.0
544 204 -1.0
588 204 -1.0
775 204 1.0
776 204 -1.0
245 205 -1.0
285 205 1.0
246 206 -1.0
286 206 1.0
247 207 -1.0
287 207 1.0
248 208 -1.0
288 208 1.0
249 209 -1.0
289 209 1.0
250 210 -1.0
290 210 1.0
251 211 -1.0
291 211 1.0
252 212 -1.0
292 212 1.0
253 213 -1.0
293 213 1.0
254 214 -1.0
294 214 1.0
255 215 -1.0
295 215 1.0
256 216 -1.0
296 216 1.0
257 217 -1.0
297 217 1.0
258 218 -1.0
298 218 1.0
259 219 -1.0
299 219 1.0
260 220 -1.0
300 220 1.0
261 221 -1.0
301 221 1.0
262 222 -1.0
302 222 1.0
263 223 -1.0
303 223 1.0
264 224 -1.0
304 224 1.0
265 225 -1.0
305 225 1.0
266 226 -1.0
306 226 1.0
267 227 -1.0
307 227 1.0
268 228 -1.0
308 228 1.0
269 229 -1.0
309 229 1.0
270 230 -1.0
310 230 1.0
271 231 -1.0
311 231 1.0
272 232 -1.0
312 232 1.0
273 233 -1.0
313 233 1.0
274 234 -1.0
314 234 1.0
275 235 -1.0
315 235 1.0
276 236 -1.0
316 236 1.0
277 237 -1.0
317 237 1.0
278 238 -1.0
318 238 1.0
279 239 -1.0
319 239 1.0
280 240 -1.0
320 240 1.0
281 241 -1.0
321 241 1.0
282 242 -1.0
322 242 1.0
283 243 -1.0
323 243 1.0
284 244 -1.0
324 244 1.0

BCOORD
324
25 1.0
26 1.0
28 1.0
29 1.0
30 1.0
32 1.0
33 1.0
34 1.0
36 1.0
37 1.0
38 1.0
40 1.0
49 1.0
50 1.0
52 1.0
53 1.0
54 1.0
56 1.0
57 1.0
58 1.0
60 1.0
61 1.0
62 1.0
64 1.0
73 1.0
74 1.0
75 1.0
76 1.0
77 1.0
78 1.0
79 1.0
80 1.0
89 1.0
90 1.0
92 1.0
93 1.0
94 1.0
96 1.0
97 1.0
98 1.0
100 1.0
101 1.0
102 1.0
104 1.0
113 1.0
114 1.0
115 1.0
116 1.0
117 1.0
118 1.0
119 1.0
120 1.0
121 1.0
122 1.0
123 1.0
124 1.0
125 1.0
126 1.0
127 1.0
128 1.0
141 1.0
142 1.0
144 1.0
145 1.0
146 1.0
148 1.0
149 1.0
150 1.0
152 1.0
153 1.0
154 1.0
156 1.0
165 1.0
166 1.0
168 1.0
169 1.0
170 1.0
172 1.0
173 1.0
174 1.0
176 1.0
177 1.0
178 1.0
180 1.0
189 1.0
190 1.0
192 1.0
193 1.0
194 1.0
196 1.0
197 1.0
198 1.0
200 1.0
201 1.0
202 1.0
204 1.0
213 1.0
214 1.0
215 1.0
216 1.0
217 1.0
218 1.0
219 1.0
220 1.0
229 1.0
230 1.0
231 1.0
232 1.0
233 1.0
234 1.0
235 1.0
236 1.0
385 1.0
386 1.0
387 1.0
388 1.0
389 1.0
390 1.0
391 1.0
392 1.0
393 1.0
394 1.0
395 1.0
396 1.0
397 1.0
398 1.0
399 1.0
400 1.0
401 1.0
402 1.0
403 1.0
404 1.0
405 1.0
406 1.0
407 1.0
408 1.0
409 1.0
410 1.0
411 1.0
412 1.0
413 1.0
414 1.0
415 1.0
416 1.0
417 1.0
418 1.0
419 1.0
420 1.0
421 1.0
422 1.0
423 1.0
424 1.0
425 1.0
426 1.0
427 1.0
428 1.0
429 1.0
430 1.0
431 1.0
432 1.0
433 1.0
434 1.0
435 1.0
436 1.0
437 1.0
438 1.0
439 1.0
440 1.0
441 1.0
442 1.0
443 1.0
444 1.0
445 1.0
446 1.0
447 1.0
448 1.0
449 1.0
450 1.0
451 1.0
452 1.0
453 1.0
454 1.0
455 1.0
456 1.0
457 1.0
458 1.0
459 1.0
460 1.0
461 1.0
462 1.0
463 1.0
464 1.0
465 1.0
466 1.0
467 1.0
468 1.0
469 1.0
470 1.0
471 1.0
472 1.0
473 1.0
474 1.0
475 1.0
476 1.0
477 1.0
478 1.0
479 1.0
480 1.0
481 1.0
482 1.0
483 1.0
484 1.0
485 1.0
486 1.0
487 1.0
488 1.0
489 1.0
490 1.0
491 1.0
492 1.0
493 1.0
494 1.0
495 1.0
496 1.0
497 1.0
498 1.0
499 1.0
500 1.0
501 1.0
502 1.0
503 1.0
504 1.0
545 -1.0
546 -1.0
547 -1.0
548 -1.0
590 40.0
592 40.0
594 40.0
596 40.0
638 30.0
640 30.0
642 30.0
644 30.0
698 1.0
700 1.0
702 1.0
704 1.0
706 1.0
708 1.0
710 1.0
712 1.0
714 1.0
716 1.0
718 1.0
720 1.0
722 1.0
724 1.0
726 1.0
728 1.0
730 1.0
732 1.0
734 1.0
736 1.0
738 1.0
740 1.0
742 1.0
744 1.0
746 1.0
748 1.0
750 1.0
752 1.0
754 1.0
756 1.0
758 1.0
760 1.0
762 1.0
764 1.0
766 1.0
768 1.0
770 1.0
772 1.0
774 1.0
776 1.0
778 1.0
780 1.0
782 1.0
784 1.0
786 1.0
788 1.0
790 1.0
792 1.0
794 1.0
796 1.0
798 1.0
800 1.0
802 1.0
804 1.0
806 1.0
808 1.0
810 1.0
812 1.0
814 1.0
816 1.0
818 1.0
820 1.0
822 1.0
824 1.0
826 1.0
828 1.0
830 1.0
832 1.0
834 1.0
836 1.0
838 1.0
840 1.0
842 1.0
844 1.0
846 1.0
848 1.0
850 1.0
852 1.0
854 1.0
856 1.0
